NAME          COPTPROB
OBJSENSE
  MIN
ROWS
 N  __OBJ___
 L  C428    
 L  C450    
 L  C470    
 L  C546    
 L  C870    
 L  C1166   
COLUMNS
    MARKER    'MARKER'                 'INTORG'
    x39       __OBJ___  -1
    x39       C450      1
    x39       C470      1
    x77       __OBJ___  -1
    x77       C450      1
    x77       C870      1
    x154      __OBJ___  -1
    x154      C428      1
    x154      C1166     1
    x194      __OBJ___  -1
    x194      C546      1
    x194      C1166     1
    x281      __OBJ___  -1
    x281      C428      1
    x281      C870      1
    x396      __OBJ___  -1
    x396      C470      1
    x396      C546      1
    MARKER    'MARKER'                 'INTEND'
RHS
    RHS       __OBJ___  340
    RHS       C428      1
    RHS       C450      1
    RHS       C470      1
    RHS       C546      1
    RHS       C870      1
    RHS       C1166     1
BOUNDS
 UP BOUND     x39       1
 UP BOUND     x77       1
 UP BOUND     x154      1
 UP BOUND     x194      1
 UP BOUND     x281      1
 UP BOUND     x396      1
ENDATA
